
Gurobi 9.1.2 (linux64, gurobi_cl) logging started Fri Jul 30 13:54:09 2021

Using license file /opt/gurobi/gurobi.lic
Set parameter TimeLimit to value 600
Set parameter Cuts to value 2
Set parameter LogFile to value 912-Cuts2-glass4-1.log
Set parameter Seed to value 1

Gurobi Optimizer version 9.1.2 build v9.1.2rc0 (linux64)
Copyright (c) 2021, Gurobi Optimization, LLC

Read MPS format model from file /nfs/models/mip/glass4.mps.bz2
Reading time = 0.03 seconds
glass4: 396 rows, 322 columns, 1815 nonzeros
Thread count: 4 physical cores, 8 logical processors, using up to 8 threads
Optimize a model with 396 rows, 322 columns and 1815 nonzeros
Model fingerprint: 0x0a9d9037
Variable types: 20 continuous, 302 integer (0 binary)
Coefficient statistics:
  Matrix range     [1e+00, 8e+06]
  Objective range  [1e+00, 1e+06]
  Bounds range     [1e+00, 8e+02]
  RHS range        [1e+00, 8e+06]
Presolve removed 6 rows and 6 columns
Presolve time: 0.00s
Presolved: 390 rows, 316 columns, 1803 nonzeros
Variable types: 19 continuous, 297 integer (297 binary)
Found heuristic solution: objective 3.133356e+09

Root relaxation: objective 8.000024e+08, 72 iterations, 0.00 seconds

    Nodes    |    Current Node    |     Objective Bounds      |     Work
 Expl Unexpl |  Obj  Depth IntInf | Incumbent    BestBd   Gap | It/Node Time

     0     0 8.0000e+08    0   72 3.1334e+09 8.0000e+08  74.5%     -    0s
H    0     0                    2.250018e+09 8.0000e+08  64.4%     -    0s
H    0     0                    2.150017e+09 8.0000e+08  62.8%     -    0s
     0     0 8.0000e+08    0   72 2.1500e+09 8.0000e+08  62.8%     -    0s
     0     0 8.0000e+08    0   72 2.1500e+09 8.0000e+08  62.8%     -    0s
     0     2 8.0000e+08    0   72 2.1500e+09 8.0000e+08  62.8%     -    0s
H  124   192                    1.850016e+09 8.0000e+08  56.8%   5.3    0s
H  427   408                    1.700016e+09 8.0000e+08  52.9%   4.5    0s
H 1365   999                    1.700015e+09 8.0001e+08  52.9%  16.5    1s
H 1983  1114                    1.666682e+09 8.0036e+08  52.0%  19.0    2s
H 1999  1069                    1.666682e+09 8.0036e+08  52.0%  18.9    2s
* 2631  1295              67    1.666682e+09 8.0832e+08  51.5%  22.3    3s
* 2735  1245              80    1.640013e+09 8.1869e+08  50.1%  22.3    3s
* 4127  1977              48    1.600016e+09 8.3903e+08  47.6%  23.1    4s
* 4489  2263              69    1.600014e+09 8.4616e+08  47.1%  23.0    4s
* 5550  2692              45    1.550014e+09 8.5001e+08  45.2%  24.2    4s
  5968  2928 1.0211e+09   34   67 1.5500e+09 8.5556e+08  44.8%  24.8    5s
H 6038  2928                    1.550014e+09 8.5556e+08  44.8%  24.8    5s
* 7240  3511              48    1.550014e+09 8.7778e+08  43.4%  25.3    5s
* 7242  3410              47    1.500014e+09 8.7778e+08  41.5%  25.3    5s
* 7357  2814              71    1.400013e+09 8.7778e+08  37.3%  25.4    5s
* 7680  2845              41    1.400013e+09 8.7778e+08  37.3%  25.8    5s
* 7702  2844              47    1.400013e+09 8.7778e+08  37.3%  25.8    5s
 12821  4635 infeasible   25      1.4000e+09 9.1112e+08  34.9%  33.4   10s
 20804  6522 1.2000e+09   28   57 1.4000e+09 1.0000e+09  28.6%  37.0   15s
*27595  5224              59    1.366682e+09 1.1000e+09  19.5%  37.5   19s
H28389  4636                    1.300014e+09 1.1000e+09  15.4%  37.7   21s
H28430  2825                    1.200013e+09 1.1000e+09  8.33%  37.8   21s

Cutting planes:
  Gomory: 154
  Cover: 336
  Implied bound: 130
  Projected implied bound: 8
  MIR: 104
  Flow cover: 709
  Inf proof: 20
  RLT: 67
  Relax-and-lift: 211

Explored 30673 nodes (1119776 simplex iterations) in 21.93 seconds
Thread count was 8 (of 8 available processors)

Solution count 10: 1.20001e+09 1.30001e+09 1.36668e+09 ... 1.55001e+09

Optimal solution found (tolerance 1.00e-04)
Best objective 1.200012600000e+09, best bound 1.200006814530e+09, gap 0.0005%
